<?xml version="1.0" encoding="UTF-8"?><osil xmlns="os.optimizationservices.org" xmlns:xsi="http://www.w3.org/2001/XMLSchema-instance" xsi:schemaLocation="os.optimizationservices.org http://www.optimizationservices.org/schemas/2.0/OSiL.xsd"><instanceHeader><name>nvs01</name></instanceHeader><instanceData><variables numberOfVariables="3"><var name="i1" type="I" ub="200"/><var name="i2" type="I" ub="200"/><var name="x3" ub="100"/></variables><objectives><obj maxOrMin="min" name="defObj_objvar" numberOfObjCoef="0"/></objectives><constraints numberOfConstraints="3"><con name="e1" lb="0" ub="0"/><con name="e2" lb="-100"/><con name="e3" lb="0"/></constraints><linearConstraintCoefficients numberOfValues="2"><start><el mult="2">0</el><el>1</el><el>2</el></start><colIdx><el mult="2">2</el></colIdx><value><el mult="2">-1</el></value></linearConstraintCoefficients><nonlinearExpressions numberOfNonlinearExpressions="3"><nl idx="-1"><product><sqrt><sum><square><variable idx="0"/></square><number value="900"/></sum></sqrt><number value="4.712385e-2"/><variable idx="1"/></product></nl><nl idx="0"><sum><product><sqrt><sum><square><variable idx="0"/></square><number value="900"/></sum></sqrt><number value="420.169404664517"/></product><product><variable idx="2"/><variable idx="0"/><variable idx="1" coef="-1"/></product></sum></nl><nl idx="2"><divide><sum><product><square><variable idx="1"/></square><number value="18505.4769901875"/></product><number value="2960.87631843"/></sum><sum><square><variable idx="0"/></square><number value="7.2e3"/></sum></divide></nl></nonlinearExpressions></instanceData></osil>